430.0
427.0
430.0
437.0
427.0
423.0
426.0
427.0
432.0
427.0
429.0
435.0
439.0
422.0
441.0
434.0
440.0
421.0
431.0
441.0
434.0
424.0
435.0
425.0
433.0
423.0
445.0
429.0
435.0
424.0
426.0
421.0
430.0
438.0
428.0
423.0
426.0
429.0
435.0
430.0
418.0
425.0
427.0
426.0
432.0
426.0
426.0
421.0
427.0
422.0
424.0
439.0
425.0
430.0
430.0
430.0
429.0
431.0
427.0
432.0
430.0
429.0
445.0
438.0
428.0
434.0
424.0
431.0
436.0
434.0
427.0
432.0
435.0
437.0
429.0
436.0
434.0
447.0
432.0
428.0
423.0
420.0
438.0
429.0
433.0
433.0
444.0
420.0
421.0
420.0
432.0
430.0
429.0
432.0
439.0
433.0
443.0
428.0
444.0
426.0
